pair_coeff         1    1  tanhlr/cut/domainab     0.000000    -0.621051    -0.621051 ${rctanh}  ${sigmatanh}
pair_coeff         1    2  tanhlr/cut/domainab     0.000000     0.044873     0.044873 ${rctanh}  ${sigmatanh}
pair_coeff         1    3  tanhlr/cut/domainab     0.000000    -0.103277    -0.103277 ${rctanh}  ${sigmatanh}
pair_coeff         1    4  tanhlr/cut/domainab     0.000000     0.000000     0.000000 ${rctanh}  ${sigmatanh}
pair_coeff         1    5  tanhlr/cut/domainab     0.000000    -0.621051    -0.621051 ${rctanh}  ${sigmatanh}
pair_coeff         1    6  tanhlr/cut/domainab     0.000000     0.044873     0.044873 ${rctanh}  ${sigmatanh}
pair_coeff         1    7  tanhlr/cut/domainab     0.000000    -0.103277    -0.103277 ${rctanh}  ${sigmatanh}
pair_coeff         2    2  tanhlr/cut/domainab     0.000000     0.883398     0.883398 ${rctanh}  ${sigmatanh}
pair_coeff         2    3  tanhlr/cut/domainab     0.000000    -0.232842    -0.232842 ${rctanh}  ${sigmatanh}
pair_coeff         2    4  tanhlr/cut/domainab     0.000000     0.000000     0.000000 ${rctanh}  ${sigmatanh}
pair_coeff         2    5  tanhlr/cut/domainab     0.000000     0.044873     0.044873 ${rctanh}  ${sigmatanh}
pair_coeff         2    6  tanhlr/cut/domainab     0.000000     0.883398     0.883398 ${rctanh}  ${sigmatanh}
pair_coeff         2    7  tanhlr/cut/domainab     0.000000    -0.232842    -0.232842 ${rctanh}  ${sigmatanh}
pair_coeff         3    3  tanhlr/cut/domainab     0.000000    -3.300636    -3.300636 ${rctanh}  ${sigmatanh}
pair_coeff         3    4  tanhlr/cut/domainab     0.000000     0.000000     0.000000 ${rctanh}  ${sigmatanh}
pair_coeff         3    5  tanhlr/cut/domainab     0.000000    -0.103277    -0.103277 ${rctanh}  ${sigmatanh}
pair_coeff         3    6  tanhlr/cut/domainab     0.000000    -0.232842    -0.232842 ${rctanh}  ${sigmatanh}
pair_coeff         3    7  tanhlr/cut/domainab     0.000000    -3.300636    -3.300636 ${rctanh}  ${sigmatanh}
pair_coeff         4    4  tanhlr/cut/domainab     0.000000     0.000000     0.000000 ${rctanh}  ${sigmatanh}
pair_coeff         4    5  tanhlr/cut/domainab     0.000000     0.000000     0.000000 ${rctanh}  ${sigmatanh}
pair_coeff         4    6  tanhlr/cut/domainab     0.000000     0.000000     0.000000 ${rctanh}  ${sigmatanh}
pair_coeff         4    7  tanhlr/cut/domainab     0.000000     0.000000     0.000000 ${rctanh}  ${sigmatanh}
pair_coeff         5    5  tanhlr/cut/domainab     0.000000    -0.621051    -0.621051 ${rctanh}  ${sigmatanh}
pair_coeff         5    6  tanhlr/cut/domainab     0.000000     0.044873     0.044873 ${rctanh}  ${sigmatanh}
pair_coeff         5    7  tanhlr/cut/domainab     0.000000    -0.103277    -0.103277 ${rctanh}  ${sigmatanh}
pair_coeff         6    6  tanhlr/cut/domainab     0.000000     0.883398     0.883398 ${rctanh}  ${sigmatanh}
pair_coeff         6    7  tanhlr/cut/domainab     0.000000    -0.232842    -0.232842 ${rctanh}  ${sigmatanh}
pair_coeff         7    7  tanhlr/cut/domainab     0.000000    -3.300636    -3.300636 ${rctanh}  ${sigmatanh}
